c FILE /home/rafael/Documents/HappySet/MIHS/inputs/happygen/output/graph_scale_free_k7_p0.4_v100_20241127_083902.txt
c SOURCE This is a scale-free graph formed for the happy graph colouring problem.
c DESCRIPTION It was generated using the problem generator of Rhyd Lewis
c
c GRAPH STATS
c Seed                             = 1321684411
c Number of Nodes                  = 100
c Number of colours k              = 7
c Number of pre-assignments        = 40
c Number of links per new node     = 5
c Density                          = 0.0979798
c 
c The degrees of nodes 1 to 100, respectively, are as follows 
c [43, 34, 28, 25, 25, 25, 22, 22, 21, 21, 21, 20, 19, 18, 17, 16, 15, 14, 13, 13, 12, 11, 11, 11, 10, 10, 
c  10, 9, 9, 9, 9, 9, 9, 9, 9, 9, 9, 9, 8, 8, 7, 7, 7, 7, 7, 7, 7, 7, 7, 7, 7, 
c  7, 6, 6, 6, 6, 6, 6, 6, 6, 6, 6, 6, 6, 6, 6, 6, 6, 6, 6, 6, 6, 6, 6, 6, 6, 
c  5, 5, 5, 5, 5, 5, 5, 5, 5, 5, 5, 5, 5, 5, 5, 5, 5, 5, 5, 5, 5, 5, 5, 5] 
c  
p edge 100 485 7
e 1 2
e 1 4
e 1 5
e 1 6
e 1 7
e 1 8
e 1 9
e 1 10
e 1 11
e 1 12
e 1 13
e 1 14
e 1 16
e 1 17
e 1 20
e 1 21
e 1 24
e 1 25
e 1 26
e 1 30
e 1 33
e 1 34
e 1 37
e 1 39
e 1 41
e 1 44
e 1 45
e 1 46
e 1 48
e 1 51
e 1 52
e 1 53
e 1 54
e 1 55
e 1 56
e 1 58
e 1 60
e 1 62
e 1 63
e 1 67
e 1 74
e 1 83
e 1 89
e 2 4
e 2 5
e 2 8
e 2 9
e 2 10
e 2 12
e 2 13
e 2 14
e 2 15
e 2 17
e 2 18
e 2 19
e 2 28
e 2 30
e 2 31
e 2 36
e 2 40
e 2 41
e 2 49
e 2 50
e 2 51
e 2 55
e 2 61
e 2 67
e 2 75
e 2 77
e 2 79
e 2 84
e 2 86
e 2 91
e 2 94
e 2 95
e 2 99
e 3 5
e 3 6
e 3 9
e 3 10
e 3 12
e 3 14
e 3 16
e 3 17
e 3 18
e 3 19
e 3 25
e 3 26
e 3 30
e 3 41
e 3 43
e 3 44
e 3 51
e 3 52
e 3 57
e 3 66
e 3 67
e 3 77
e 3 80
e 3 87
e 3 90
e 3 91
e 3 92
e 3 93
e 4 5
e 4 6
e 4 7
e 4 9
e 4 10
e 4 11
e 4 12
e 4 13
e 4 14
e 4 17
e 4 25
e 4 28
e 4 32
e 4 35
e 4 36
e 4 38
e 4 41
e 4 45
e 4 65
e 4 79
e 4 88
e 4 89
e 4 96
e 5 6
e 5 9
e 5 10
e 5 11
e 5 12
e 5 13
e 5 21
e 5 24
e 5 29
e 5 42
e 5 44
e 5 58
e 5 67
e 5 71
e 5 73
e 5 74
e 5 75
e 5 84
e 5 94
e 5 95
e 5 96
e 6 7
e 6 8
e 6 9
e 6 10
e 6 11
e 6 13
e 6 21
e 6 28
e 6 32
e 6 35
e 6 42
e 6 43
e 6 47
e 6 53
e 6 60
e 6 64
e 6 65
e 6 68
e 6 77
e 6 84
e 6 98
e 7 8
e 7 9
e 7 15
e 7 21
e 7 22
e 7 23
e 7 25
e 7 28
e 7 41
e 7 44
e 7 47
e 7 57
e 7 58
e 7 62
e 7 66
e 7 69
e 7 82
e 7 85
e 7 91
e 8 13
e 8 18
e 8 22
e 8 27
e 8 37
e 8 38
e 8 42
e 8 45
e 8 46
e 8 48
e 8 51
e 8 59
e 8 64
e 8 67
e 8 70
e 8 72
e 8 88
e 8 90
e 9 13
e 9 15
e 9 16
e 9 17
e 9 19
e 9 21
e 9 23
e 9 24
e 9 36
e 9 45
e 9 50
e 9 55
e 9 64
e 9 90
e 10 11
e 10 12
e 10 14
e 10 16
e 10 24
e 10 27
e 10 29
e 10 30
e 10 31
e 10 33
e 10 40
e 10 77
e 10 85
e 10 87
e 10 98
e 11 18
e 11 22
e 11 26
e 11 27
e 11 31
e 11 32
e 11 53
e 11 55
e 11 56
e 11 61
e 11 64
e 11 78
e 11 80
e 11 83
e 11 91
e 11 97
e 12 26
e 12 28
e 12 29
e 12 32
e 12 33
e 12 39
e 12 48
e 12 50
e 12 52
e 12 54
e 12 56
e 12 60
e 12 63
e 12 92
e 13 15
e 13 20
e 13 21
e 13 27
e 13 32
e 13 42
e 13 47
e 13 52
e 13 54
e 13 57
e 13 83
e 13 95
e 14 20
e 14 26
e 14 33
e 14 38
e 14 45
e 14 47
e 14 48
e 14 52
e 14 58
e 14 70
e 14 75
e 14 92
e 14 100
e 15 18
e 15 23
e 15 34
e 15 40
e 15 43
e 15 44
e 15 46
e 15 58
e 15 69
e 15 75
e 15 79
e 15 82
e 15 83
e 16 21
e 16 22
e 16 27
e 16 31
e 16 37
e 16 40
e 16 49
e 16 62
e 16 68
e 16 79
e 16 82
e 16 87
e 17 22
e 17 30
e 17 53
e 17 54
e 17 59
e 17 72
e 17 77
e 17 81
e 17 94
e 17 98
e 18 25
e 18 28
e 18 33
e 18 39
e 18 55
e 18 60
e 18 74
e 18 76
e 18 90
e 19 20
e 19 21
e 19 28
e 19 40
e 19 42
e 19 43
e 19 56
e 19 57
e 19 62
e 19 69
e 20 23
e 20 29
e 20 38
e 20 39
e 20 70
e 20 72
e 20 82
e 20 84
e 20 88
e 21 29
e 21 43
e 21 49
e 21 93
e 22 34
e 22 66
e 22 68
e 22 69
e 22 78
e 22 96
e 23 35
e 23 36
e 23 42
e 23 71
e 23 85
e 23 89
e 23 94
e 24 34
e 24 37
e 24 41
e 24 49
e 24 66
e 24 87
e 24 97
e 25 56
e 25 61
e 25 66
e 25 73
e 25 80
e 26 53
e 26 59
e 26 72
e 26 94
e 26 95
e 27 59
e 27 63
e 27 65
e 27 75
e 27 92
e 28 29
e 28 80
e 29 68
e 29 71
e 29 74
e 30 31
e 30 35
e 30 54
e 30 97
e 31 35
e 31 46
e 31 86
e 31 93
e 32 34
e 32 72
e 32 76
e 32 80
e 33 48
e 33 57
e 33 59
e 33 98
e 34 78
e 34 85
e 34 97
e 34 100
e 35 37
e 35 49
e 35 70
e 35 81
e 36 40
e 36 61
e 36 71
e 36 90
e 36 96
e 37 61
e 37 63
e 37 73
e 37 79
e 38 54
e 38 78
e 38 81
e 38 86
e 38 96
e 39 41
e 39 62
e 39 76
e 39 99
e 40 71
e 40 92
e 42 63
e 43 47
e 43 93
e 44 46
e 44 60
e 45 50
e 45 64
e 46 69
e 46 85
e 47 51
e 47 95
e 48 70
e 48 86
e 49 88
e 49 99
e 50 53
e 50 76
e 50 99
e 51 76
e 51 86
e 52 89
e 52 93
e 55 65
e 56 83
e 57 99
e 58 78
e 59 65
e 60 84
e 61 98
e 62 68
e 63 73
e 64 88
e 65 81
e 66 87
e 67 81
e 68 82
e 69 89
e 70 73
e 71 74
e 72 97
e 73 91
e 74 100
e 75 100
e 76 100
n 9 5
n 10 2
n 21 5
n 22 5
n 26 3
n 31 2
n 42 2
n 45 5
n 46 2
n 47 3
n 48 4
n 51 3
n 52 1
n 53 3
n 56 5
n 57 3
n 58 7
n 60 1
n 61 1
n 62 1
n 65 6
n 71 7
n 73 6
n 75 5
n 76 3
n 77 2
n 79 2
n 80 2
n 81 6
n 82 4
n 83 5
n 87 2
n 88 3
n 90 5
n 91 6
n 92 6
n 94 3
n 95 3
n 96 5
n 97 3
